(declare-const fee_bl Real)
(declare-const p9_4 Real)
(declare-const sin Real)
(declare-const p16 Real)
(declare-const p19_5 Real)
(declare-const special Real)
(declare-const p14 Real)
(declare-const income Real)
(assert (= p9_4 (* 0.094 (ite (> income 51306) 51306 income))))
(assert (= p14 (ite (> income 51306) (* 0.14 (- (ite (> income 102614) 102614 income) 51306)) 0)))
(assert (= p16 (ite (> income 102614) (* 0.16 (- (ite (> income 190060) 190060 income) 102614)) 0)))
(assert (= p19_5 (ite (> income 190060) (* 0.195 (- income 190060)) 0)))
(assert (= special (ite (>= sin 900000000) 0 1)))
(assert (= fee_bl (* special (+ (+ (+ p9_4 p14) p16) p19_5))))